objective value:                                   31
lambda[0,61]*                                       3 	(obj:0)
lambda[1,45]*                                       2 	(obj:0)
lambda[0,101]*                                      4 	(obj:0)
lambda[1,50]*                                       8 	(obj:0)
lambda[0,119]*                                      1 	(obj:31)
lambda[0,122]*                                      1 	(obj:0)
lambda[0,124]*                                      1 	(obj:0)
